&CONTROL
  calculation = 'scf',
  outdir = './out/',
  prefix = 'C',
  pseudo_dir = './pseudopotentials',
  restart_mode = 'from_scratch',
  verbosity = 'high',
/
&SYSTEM
  degauss = 0.02,
  ecutrho = 200.0,
  ecutwfc = 50.0,
  occupations = 'smearing',
  smearing = 'marzari-vanderbilt',
  ibrav = 0,
  nat = 2,
  ntyp = 1,
/
&ELECTRONS
  conv_thr = 1d-08,
  mixing_beta = 0.7,
/
&IONS
/
&CELL
/
ATOMIC_SPECIES
  C  12.0107 C.UPF
ATOMIC_POSITIONS crystal
  C 0.833331 0.833331 0.000042
  C 0.166669 0.166669 0.999958
K_POINTS automatic
  4 4 4 1 1 1 0 0 0
CELL_PARAMETERS angstrom
  1.228182 2.110901 0.265444
  -1.228182 2.110901 0.265444
  0.000000 0.716869 3.625204