&CONTROL
  calculation = 'scf',
  outdir = './out/',
  prefix = 'GaAs',
  pseudo_dir = './pseudopotentials',
  restart_mode = 'from_scratch',
  verbosity = 'high',
/
&SYSTEM
  degauss = 0.02,
  ecutrho = 200.0,
  ecutwfc = 50.0,
  occupations = 'smearing',
  smearing = 'marzari-vanderbilt',
  ibrav = 0,
  nat = 2,
  ntyp = 2,
/
&ELECTRONS
  conv_thr = 1d-08,
  mixing_beta = 0.7,
/
&IONS
/
&CELL
/
ATOMIC_SPECIES
  As  74.9216 As.UPF
  Ga  69.7230 Ga.UPF
ATOMIC_POSITIONS crystal
  Ga 0.000000 0.000000 0.000000
  As 0.250000 0.250000 0.250000
K_POINTS automatic
  4 4 4 1 1 1 0 0 0
CELL_PARAMETERS angstrom
  3.521253 0.000000 2.032997
  1.173751 3.319869 2.032997
  0.000000 0.000000 4.065993