&CONTROL
  calculation = 'scf',
  outdir = './out/',
  prefix = 'GaN',
  pseudo_dir = './pseudopotentials',
  restart_mode = 'from_scratch',
  verbosity = 'high',
/
&SYSTEM
  degauss = 0.02,
  ecutrho = 200.0,
  ecutwfc = 50.0,
  occupations = 'smearing',
  smearing = 'marzari-vanderbilt',
  ibrav = 0,
  nat = 4,
  ntyp = 2,
/
&ELECTRONS
  conv_thr = 1d-08,
  mixing_beta = 0.7,
/
&IONS
/
&CELL
/
ATOMIC_SPECIES
  Ga  69.7230 Ga.UPF
  N  14.0067 Na.UPF
ATOMIC_POSITIONS crystal
  Ga 0.666667 0.333333 0.499084
  Ga 0.333333 0.666667 0.999084
  N 0.666667 0.333333 0.875916
  N 0.333333 0.666667 0.375916
K_POINTS automatic
  4 4 4 1 1 1 0 0 0
CELL_PARAMETERS angstrom
  3.188930 -0.000000 0.000000
  -1.594465 2.761695 0.000000
  0.000000 0.000000 5.192357