Pm4
1.0
   3.6761810200000000   -0.0000000100000000    0.0000000000000000
  -1.8380910300000002    3.1836659500000000    0.0000000000000000
  -0.0000000000000000   -0.0000000000000000   11.7991114600000007
Pm
4
direct
   0.0000000000000000    0.0000000000000000   -0.0000000000000000 Pm
   0.3333339999999990    0.6666670000000000    0.2500000000000000 Pm
   0.0000000000000000    0.0000000000000000    0.5000000000000000 Pm
   0.6666660000000000    0.3333319999999990    0.7500000000000000 Pm
