&CONTROL
  calculation = 'scf',
  outdir = './out/',
  prefix = 'SiC',
  pseudo_dir = './pseudopotentials',
  restart_mode = 'from_scratch',
  verbosity = 'high',
/
&SYSTEM
  degauss = 0.02,
  ecutrho = 200.0,
  ecutwfc = 50.0,
  occupations = 'smearing',
  smearing = 'marzari-vanderbilt',
  ibrav = 0,
  nat = 38,
  ntyp = 2,
/
&ELECTRONS
  conv_thr = 1d-08,
  mixing_beta = 0.7,
/
&IONS
/
&CELL
/
ATOMIC_SPECIES
  C  12.0107 C.UPF
  Si  28.0855 Si.UPF
ATOMIC_POSITIONS crystal
  Si 0.000011 0.000011 -0.000000
  Si 0.929818 0.929818 0.210531
  Si 0.894721 0.894721 0.315803
  Si 0.824579 0.824579 0.526253
  Si 0.789465 0.789465 0.631550
  Si 0.719309 0.719309 0.842036
  Si 0.684190 0.684190 0.947409
  Si 0.631599 0.631599 0.105257
  Si 0.578921 0.578921 0.263181
  Si 0.526339 0.526339 0.421041
  Si 0.473674 0.473674 0.578894
  Si 0.421072 0.421072 0.736821
  Si 0.368419 0.368419 0.894725
  Si 0.315811 0.315811 0.052577
  Si 0.280691 0.280691 0.157941
  Si 0.210570 0.210570 0.368365
  Si 0.175438 0.175438 0.473697
  Si 0.105286 0.105286 0.684145
  Si 0.070176 0.070176 0.789465
  C 0.986839 0.986839 0.039480
  C 0.916665 0.916665 0.249989
  C 0.881590 0.881590 0.355259
  C 0.811432 0.811432 0.565700
  C 0.776334 0.776334 0.671030
  C 0.706173 0.706173 0.881509
  C 0.671046 0.671046 0.986889
  C 0.618376 0.618376 0.144862
  C 0.565748 0.565748 0.302747
  C 0.513125 0.513125 0.460630
  C 0.460509 0.460509 0.618476
  C 0.407865 0.407865 0.776403
  C 0.355222 0.355222 0.934330
  C 0.302659 0.302659 0.092048
  C 0.267520 0.267520 0.197424
  C 0.197388 0.197388 0.407832
  C 0.162282 0.162282 0.513158
  C 0.092130 0.092130 0.723618
  C 0.057008 0.057008 0.828928
K_POINTS automatic
  4 4 4 1 1 1 0 0 0
CELL_PARAMETERS angstrom
  -1.538387 -2.664573 -0.000000
  1.538387 -2.664573 -0.000000
  0.000000 -1.776367 47.807230