&CONTROL
  calculation = 'scf',
  outdir = './out/',
  prefix = 'W',
  pseudo_dir = './pseudopotentials',
  restart_mode = 'from_scratch',
  verbosity = 'high',
/
&SYSTEM
  degauss = 0.02,
  ecutrho = 200.0,
  ecutwfc = 50.0,
  occupations = 'smearing',
  smearing = 'marzari-vanderbilt',
  ibrav = 0,
  nat = 1,
  ntyp = 1,
/
&ELECTRONS
  conv_thr = 1d-08,
  mixing_beta = 0.7,
/
&IONS
/
&CELL
/
ATOMIC_SPECIES
  W  183.8400 W.UPF
ATOMIC_POSITIONS crystal
  W 0.000000 0.000000 -0.000000
K_POINTS automatic
  4 4 4 1 1 1 0 0 0
CELL_PARAMETERS angstrom
  2.588551 0.000000 -0.915192
  -1.294276 2.241751 -0.915192
  -0.000000 -0.000000 2.745575