&CONTROL
  calculation = 'scf',
  outdir = './out/',
  prefix = 'Xe',
  pseudo_dir = './pseudopotentials',
  restart_mode = 'from_scratch',
  verbosity = 'high',
/
&SYSTEM
  degauss = 0.02,
  ecutrho = 200.0,
  ecutwfc = 50.0,
  occupations = 'smearing',
  smearing = 'marzari-vanderbilt',
  ibrav = 0,
  nat = 1,
  ntyp = 1,
/
&ELECTRONS
  conv_thr = 1d-08,
  mixing_beta = 0.7,
/
&IONS
/
&CELL
/
ATOMIC_SPECIES
  Xe  131.2930 Xe.UPF
ATOMIC_POSITIONS crystal
  Xe 0.000000 0.000000 0.000000
K_POINTS automatic
  4 4 4 1 1 1 0 0 0
CELL_PARAMETERS angstrom
  4.139024 -2.528659 0.000000
  4.139024 2.528659 0.000000
  2.594187 0.000000 4.098272