&CONTROL
  calculation = 'scf',
  outdir = '/home/lauryne/QE_to_TCAD/out',
  prefix = 'Fe',
  pseudo_dir = '/home/lauryne/QE_to_TCAD/pseudopotentials',
  restart_mode = 'from_scratch',
  verbosity = 'high',
/
&SYSTEM
  degauss = 0.02,
  ecutrho = 200.0,
  ecutwfc = 50.0,
  occupations = 'smearing',
  smearing = 'marzari-vanderbilt',
  ibrav = 0,
  nat = 2,
  ntyp = 1,
/
&ELECTRONS
  conv_thr = 1d-08,
  mixing_beta = 0.7,
/
&IONS
/
&CELL
/
ATOMIC_SPECIES
  Fe  55.8450 Fe.UPF
ATOMIC_POSITIONS crystal
  Fe 0.500000 0.500000 0.500000
  Fe 1.000000 1.000000 0.000000
K_POINTS automatic
  4 4 4 1 1 1 0 0 0
CELL_PARAMETERS angstrom
  2.336145 0.000112 -0.825823
  -1.168078 2.023047 -0.826082
  1.170074 2.027305 3.310328