&CONTROL
  calculation = 'scf',
  outdir = './out/',
  prefix = 'O',
  pseudo_dir = './pseudopotentials',
  restart_mode = 'from_scratch',
  verbosity = 'high',
/
&SYSTEM
  degauss = 0.02,
  ecutrho = 200.0,
  ecutwfc = 50.0,
  occupations = 'smearing',
  smearing = 'marzari-vanderbilt',
  ibrav = 0,
  nat = 8,
  ntyp = 1,
/
&ELECTRONS
  conv_thr = 1d-08,
  mixing_beta = 0.7,
/
&IONS
/
&CELL
/
ATOMIC_SPECIES
  O  15.9994 O.UPF
ATOMIC_POSITIONS crystal
  O 0.726541 0.213911 0.155391
  O 0.786089 0.273459 0.844609
  O 0.273459 0.786089 0.844609
  O 0.213911 0.726541 0.155391
  O 0.792252 0.792252 0.178320
  O 0.207748 0.207748 0.821680
  O 0.851778 0.851778 0.867359
  O 0.148222 0.148222 0.132641
K_POINTS automatic
  4 4 4 1 1 1 0 0 0
CELL_PARAMETERS angstrom
  3.110107 4.377428 0.000000
  -3.110107 4.377428 0.000000
  0.000000 1.908312 3.953345