&CONTROL
  calculation = 'scf',
  outdir = './out/',
  prefix = 'Ag',
  pseudo_dir = './pseudopotentials',
  restart_mode = 'from_scratch',
  verbosity = 'high',
/
&SYSTEM
  degauss = 0.02,
  ecutrho = 200.0,
  ecutwfc = 50.0,
  occupations = 'smearing',
  smearing = 'marzari-vanderbilt',
  ibrav = 0,
  nat = 4,
  ntyp = 1,
/
&ELECTRONS
  conv_thr = 1d-08,
  mixing_beta = 0.7,
/
&IONS
/
&CELL
/
ATOMIC_SPECIES
  Ag  107.8682 Ag.UPF
ATOMIC_POSITIONS crystal
  Ag 0.000000 0.000000 0.000000
  Ag 0.000000 0.000000 0.500000
  Ag 0.333333 0.666667 0.250000
  Ag 0.666667 0.333333 0.750000
K_POINTS automatic
  4 4 4 1 1 1 0 0 0
CELL_PARAMETERS angstrom
  2.911132 0.000000 0.000000
  -1.455565 2.521114 0.000000
  0.000000 0.000000 9.463709