&CONTROL
  calculation = 'scf',
  outdir = '/home/lauryne/QE_to_TCAD/out',
  prefix = 'Zn',
  pseudo_dir = '/home/lauryne/QE_to_TCAD/pseudopotentials',
  restart_mode = 'from_scratch',
  verbosity = 'high',
/
&SYSTEM
  degauss = 0.02,
  ecutrho = 200.0,
  ecutwfc = 50.0,
  occupations = 'smearing',
  smearing = 'marzari-vanderbilt',
  ibrav = 0,
  nat = 2,
  ntyp = 1,
/
&ELECTRONS
  conv_thr = 1d-08,
  mixing_beta = 0.7,
/
&IONS
/
&CELL
/
ATOMIC_SPECIES
  Zn  65.4090 Zn.UPF
ATOMIC_POSITIONS crystal
  Zn 0.333333 0.666667 0.250000
  Zn 0.666667 0.333333 0.750000
K_POINTS automatic
  4 4 4 1 1 1 0 0 0
CELL_PARAMETERS angstrom
  2.614360 0.000000 0.000000
  -1.307179 2.264102 0.000000
  0.000000 -0.000000 4.873161